words_hard_train/7258.qaiger
aag 137 16 0 1 121
2
4
12
16
24
26
32
36
40
44
90
110
130
146
162
178
275
6 2 5
8 3 4
10 7 9
14 10 12
18 16 3
20 17 2
22 19 21
28 25 26
30 29 25
34 31 32
38 34 36
42 38 40
46 42 44
48 23 46
50 22 47
52 49 51
54 13 26
56 54 25
58 56 32
60 35 37
62 61 39
64 58 63
66 39 41
68 67 43
70 64 69
72 43 45
74 47 73
76 70 75
78 53 77
80 52 76
82 79 81
84 4 12
86 12 27
88 87 55
92 89 91
94 88 90
96 93 95
98 84 96
100 99 95
102 29 55
104 24 27
106 102 105
108 107 57
112 109 111
114 108 110
116 113 115
118 101 116
120 119 115
122 31 57
124 123 33
126 34 57
128 125 127
132 128 131
134 129 130
136 133 135
138 121 136
140 139 135
142 59 62
144 143 65
148 145 147
150 144 146
152 149 151
154 141 152
156 155 151
158 65 68
160 159 71
164 161 163
166 160 162
168 165 167
170 157 168
172 171 167
174 71 74
176 175 77
180 177 179
182 176 178
184 181 183
186 173 184
188 187 183
190 82 188
192 83 189
194 191 193
196 194 13
198 15 197
200 100 117
202 201 119
204 203 40
206 156 169
208 207 171
210 209 24
212 205 211
214 120 137
216 215 139
218 217 36
220 140 153
222 221 155
224 222 33
226 219 225
228 85 97
230 229 99
232 231 44
234 226 233
236 212 234
238 208 25
240 216 37
242 239 241
244 223 32
246 242 245
248 236 246
250 198 248
252 172 185
254 253 187
256 255 26
258 195 11
260 257 259
262 230 45
264 254 27
266 263 265
268 202 41
270 266 269
272 260 270
274 250 272
i0 2 y1[7]
i1 1 x1[0]
i2 2 y1[0]
i3 1 x1[7]
i4 2 y1[2]
i5 2 y1[1]
i6 2 y1[3]
i7 2 y1[4]
i8 2 y1[5]
i9 2 y1[6]
i10 1 x1[1]
i11 1 x1[2]
i12 1 x1[3]
i13 1 x1[4]
i14 1 x1[5]
i15 1 x1[6]
o0 bool[0]
c
simplified
  !=
    reverse
      2 y1
    subtract
      1 x1
      add
        2 y1
        -250
