words_hard_train/7258.qaiger.qdimacs
p cnf 137 364
a 65 2 8 73 45 81 55 89 0
e 1 3 4 5 6 7 9 10 11 12 13 14 15 16 17 18 19 20 21 22 23 24 25 26 27 28 29 30 31 32 33 34 35 36 37 38 39 40 41 42 43 44 46 47 48 49 50 51 52 53 54 56 57 58 59 60 61 62 63 64 66 67 68 69 70 71 72 74 75 76 77 78 79 80 82 83 84 85 86 87 88 90 91 92 93 94 95 96 97 98 99 100 101 102 103 104 105 106 107 108 109 110 111 112 113 114 115 116 117 118 119 120 121 122 123 124 125 126 127 128 129 130 131 132 133 134 135 136 137 0
-1 2 3 0
1 -3 0
-2 -3 0
1 -2 4 0
-1 -4 0
2 -4 0
3 4 5 0
-3 -5 0
-4 -5 0
-5 -6 7 0
5 -7 0
6 -7 0
-8 1 9 0
8 -9 0
-1 -9 0
8 -1 10 0
-8 -10 0
1 -10 0
9 10 11 0
-9 -11 0
-10 -11 0
12 -13 14 0
-12 -14 0
13 -14 0
14 12 15 0
-14 -15 0
-12 -15 0
15 -16 17 0
-15 -17 0
16 -17 0
-17 -18 19 0
17 -19 0
18 -19 0
-19 -20 21 0
19 -21 0
20 -21 0
-21 -22 23 0
21 -23 0
22 -23 0
11 -23 24 0
-11 -24 0
23 -24 0
-11 23 25 0
11 -25 0
-23 -25 0
24 25 26 0
-24 -26 0
-25 -26 0
6 -13 27 0
-6 -27 0
13 -27 0
-27 12 28 0
27 -28 0
-12 -28 0
-28 -16 29 0
28 -29 0
16 -29 0
17 18 30 0
-17 -30 0
-18 -30 0
30 19 31 0
-30 -31 0
-19 -31 0
-29 31 32 0
29 -32 0
-31 -32 0
19 20 33 0
-19 -33 0
-20 -33 0
33 21 34 0
-33 -34 0
-21 -34 0
-32 34 35 0
32 -35 0
-34 -35 0
21 22 36 0
-21 -36 0
-22 -36 0
23 36 37 0
-23 -37 0
-36 -37 0
-35 37 38 0
35 -38 0
-37 -38 0
26 38 39 0
-26 -39 0
-38 -39 0
-26 -38 40 0
26 -40 0
38 -40 0
39 40 41 0
-39 -41 0
-40 -41 0
-2 -6 42 0
2 -42 0
6 -42 0
-6 13 43 0
6 -43 0
-13 -43 0
43 27 44 0
-43 -44 0
-27 -44 0
44 45 46 0
-44 -46 0
-45 -46 0
-44 -45 47 0
44 -47 0
45 -47 0
46 47 48 0
-46 -48 0
-47 -48 0
-42 -48 49 0
42 -49 0
48 -49 0
49 47 50 0
-49 -50 0
-47 -50 0
14 27 51 0
-14 -51 0
-27 -51 0
-12 13 52 0
12 -52 0
-13 -52 0
-51 52 53 0
51 -53 0
-52 -53 0
53 28 54 0
-53 -54 0
-28 -54 0
54 55 56 0
-54 -56 0
-55 -56 0
-54 -55 57 0
54 -57 0
55 -57 0
56 57 58 0
-56 -58 0
-57 -58 0
50 -58 59 0
-50 -59 0
58 -59 0
59 57 60 0
-59 -60 0
-57 -60 0
15 28 61 0
-15 -61 0
-28 -61 0
61 16 62 0
-61 -62 0
-16 -62 0
-17 28 63 0
17 -63 0
-28 -63 0
62 63 64 0
-62 -64 0
-63 -64 0
-64 65 66 0
64 -66 0
-65 -66 0
64 -65 67 0
-64 -67 0
65 -67 0
66 67 68 0
-66 -68 0
-67 -68 0
60 -68 69 0
-60 -69 0
68 -69 0
69 67 70 0
-69 -70 0
-67 -70 0
29 -31 71 0
-29 -71 0
31 -71 0
71 32 72 0
-71 -72 0
-32 -72 0
72 73 74 0
-72 -74 0
-73 -74 0
-72 -73 75 0
72 -75 0
73 -75 0
74 75 76 0
-74 -76 0
-75 -76 0
70 -76 77 0
-70 -77 0
76 -77 0
77 75 78 0
-77 -78 0
-75 -78 0
32 -34 79 0
-32 -79 0
34 -79 0
79 35 80 0
-79 -80 0
-35 -80 0
80 81 82 0
-80 -82 0
-81 -82 0
-80 -81 83 0
80 -83 0
81 -83 0
82 83 84 0
-82 -84 0
-83 -84 0
78 -84 85 0
-78 -85 0
84 -85 0
85 83 86 0
-85 -86 0
-83 -86 0
35 -37 87 0
-35 -87 0
37 -87 0
87 38 88 0
-87 -88 0
-38 -88 0
88 89 90 0
-88 -90 0
-89 -90 0
-88 -89 91 0
88 -91 0
89 -91 0
90 91 92 0
-90 -92 0
-91 -92 0
86 -92 93 0
-86 -93 0
92 -93 0
93 91 94 0
-93 -94 0
-91 -94 0
-41 -94 95 0
41 -95 0
94 -95 0
41 94 96 0
-41 -96 0
-94 -96 0
95 96 97 0
-95 -97 0
-96 -97 0
-97 6 98 0
97 -98 0
-6 -98 0
7 98 99 0
-7 -99 0
-98 -99 0
-50 58 100 0
50 -100 0
-58 -100 0
100 59 101 0
-100 -101 0
-59 -101 0
101 -20 102 0
-101 -102 0
20 -102 0
-78 84 103 0
78 -103 0
-84 -103 0
103 85 104 0
-103 -104 0
-85 -104 0
104 -12 105 0
-104 -105 0
12 -105 0
102 105 106 0
-102 -106 0
-105 -106 0
-60 68 107 0
60 -107 0
-68 -107 0
107 69 108 0
-107 -108 0
-69 -108 0
108 -18 109 0
-108 -109 0
18 -109 0
-70 76 110 0
70 -110 0
-76 -110 0
110 77 111 0
-110 -111 0
-77 -111 0
-111 16 112 0
111 -112 0
-16 -112 0
109 112 113 0
-109 -113 0
-112 -113 0
42 48 114 0
-42 -114 0
-48 -114 0
114 49 115 0
-114 -115 0
-49 -115 0
115 -22 116 0
-115 -116 0
22 -116 0
-113 116 117 0
113 -117 0
-116 -117 0
-106 -117 118 0
106 -118 0
117 -118 0
-104 12 119 0
104 -119 0
-12 -119 0
-108 18 120 0
108 -120 0
-18 -120 0
119 120 121 0
-119 -121 0
-120 -121 0
111 -16 122 0
-111 -122 0
16 -122 0
-121 122 123 0
121 -123 0
-122 -123 0
-118 -123 124 0
118 -124 0
123 -124 0
-99 -124 125 0
99 -125 0
124 -125 0
-86 92 126 0
86 -126 0
-92 -126 0
126 93 127 0
-126 -127 0
-93 -127 0
127 -13 128 0
-127 -128 0
13 -128 0
97 5 129 0
-97 -129 0
-5 -129 0
128 129 130 0
-128 -130 0
-129 -130 0
-115 22 131 0
115 -131 0
-22 -131 0
-127 13 132 0
127 -132 0
-13 -132 0
131 132 133 0
-131 -133 0
-132 -133 0
-101 20 134 0
101 -134 0
-20 -134 0
-133 134 135 0
133 -135 0
-134 -135 0
-130 -135 136 0
130 -136 0
135 -136 0
-125 -136 137 0
125 -137 0
136 -137 0
-137 0
